(set-info :smt-lib-version 2.6)
(set-logic QF_NIA)
(set-info :source |
Generated by: Cristina Borralleras, Daniel Larraz, Albert Oliveras, Enric Rodriguez-Carbonell, Albert Rubio
Generated on: 2017-04-27
Generator: VeryMax
Application: Termination proving
Target solver: barcelogic
|)
(set-info :license "https://creativecommons.org/licenses/by/4.0/")
(set-info :category "industrial")
(set-info :status sat)
(declare-fun Nl2main_a1 () Int)
(declare-fun Nl2main_b1 () Int)
(declare-fun Nl2main_am1 () Int)
(declare-fun Nl2main_bm1 () Int)
(declare-fun Nl2main_a2 () Int)
(declare-fun Nl2main_b2 () Int)
(declare-fun Nl2main_am2 () Int)
(declare-fun Nl2main_bm2 () Int)
(declare-fun lam0n0 () Int)
(declare-fun lam0n1 () Int)
(declare-fun lam0n2 () Int)
(declare-fun lam0n3 () Int)
(declare-fun lam0n4 () Int)
(declare-fun lam0n5 () Int)
(declare-fun Nl2CT1 () Int)
(declare-fun Nl2CT2 () Int)
(declare-fun lam1n0 () Int)
(declare-fun lam1n1 () Int)
(declare-fun lam1n2 () Int)
(declare-fun lam1n3 () Int)
(declare-fun lam1n4 () Int)
(declare-fun lam1n5 () Int)
(declare-fun lam2n0 () Int)
(declare-fun lam2n1 () Int)
(declare-fun lam2n2 () Int)
(declare-fun lam2n3 () Int)
(declare-fun lam2n4 () Int)
(declare-fun lam2n5 () Int)
(declare-fun lam3n0 () Int)
(declare-fun lam3n1 () Int)
(declare-fun lam3n2 () Int)
(declare-fun lam3n3 () Int)
(declare-fun lam3n4 () Int)
(declare-fun lam4n0 () Int)
(declare-fun lam4n1 () Int)
(declare-fun lam4n2 () Int)
(declare-fun lam4n3 () Int)
(declare-fun lam4n4 () Int)
(declare-fun lam5n0 () Int)
(declare-fun lam5n1 () Int)
(declare-fun lam5n2 () Int)
(declare-fun lam5n3 () Int)
(declare-fun lam5n4 () Int)
(declare-fun lam6n0 () Int)
(declare-fun lam6n1 () Int)
(declare-fun lam6n2 () Int)
(declare-fun lam6n3 () Int)
(declare-fun lam6n4 () Int)
(declare-fun lam6n5 () Int)
(declare-fun lam6n6 () Int)
(declare-fun lam7n0 () Int)
(declare-fun lam7n1 () Int)
(declare-fun lam7n2 () Int)
(declare-fun lam7n3 () Int)
(declare-fun lam7n4 () Int)
(declare-fun lam7n5 () Int)
(declare-fun lam7n6 () Int)
(declare-fun lam8n0 () Int)
(declare-fun lam8n1 () Int)
(declare-fun lam8n2 () Int)
(declare-fun lam8n3 () Int)
(declare-fun lam8n4 () Int)
(declare-fun lam8n5 () Int)
(declare-fun lam8n6 () Int)
(declare-fun lam9n0 () Int)
(declare-fun lam9n1 () Int)
(declare-fun lam9n2 () Int)
(declare-fun lam9n3 () Int)
(declare-fun lam9n4 () Int)
(declare-fun lam9n5 () Int)
(declare-fun lam10n0 () Int)
(declare-fun lam10n1 () Int)
(declare-fun lam10n2 () Int)
(declare-fun lam10n3 () Int)
(declare-fun lam10n4 () Int)
(declare-fun lam10n5 () Int)
(declare-fun lam11n0 () Int)
(declare-fun lam11n1 () Int)
(declare-fun lam11n2 () Int)
(declare-fun lam11n3 () Int)
(declare-fun lam11n4 () Int)
(declare-fun lam11n5 () Int)
(declare-fun lam12n0 () Int)
(declare-fun lam12n1 () Int)
(declare-fun lam12n2 () Int)
(declare-fun lam12n3 () Int)
(declare-fun lam12n4 () Int)
(declare-fun lam13n0 () Int)
(declare-fun lam13n1 () Int)
(declare-fun lam13n2 () Int)
(declare-fun lam13n3 () Int)
(declare-fun lam13n4 () Int)
(declare-fun lam14n0 () Int)
(declare-fun lam14n1 () Int)
(declare-fun lam14n2 () Int)
(declare-fun lam14n3 () Int)
(declare-fun lam14n4 () Int)
(declare-fun lam15n0 () Int)
(declare-fun lam15n1 () Int)
(declare-fun lam15n2 () Int)
(declare-fun lam15n3 () Int)
(declare-fun lam15n4 () Int)
(declare-fun lam15n5 () Int)
(declare-fun lam16n0 () Int)
(declare-fun lam16n1 () Int)
(declare-fun lam16n2 () Int)
(declare-fun lam16n3 () Int)
(declare-fun lam16n4 () Int)
(declare-fun lam16n5 () Int)
(declare-fun lam17n0 () Int)
(declare-fun lam17n1 () Int)
(declare-fun lam17n2 () Int)
(declare-fun lam17n3 () Int)
(declare-fun lam18n0 () Int)
(declare-fun lam18n1 () Int)
(declare-fun lam18n2 () Int)
(declare-fun lam18n3 () Int)
(declare-fun lam19n0 () Int)
(declare-fun lam19n1 () Int)
(declare-fun lam19n2 () Int)
(declare-fun lam20n0 () Int)
(declare-fun lam20n1 () Int)
(declare-fun lam20n2 () Int)
(declare-fun main_a () Int)
(declare-fun main_b () Int)
(declare-fun main_am () Int)
(declare-fun main_bm () Int)
(declare-fun lam24n0 () Int)
(declare-fun lam24n1 () Int)
(declare-fun lam24n2 () Int)
(declare-fun lam24n3 () Int)
(declare-fun lam24n4 () Int)
(declare-fun lam24n5 () Int)
(declare-fun RFN1_CT () Int)
(declare-fun RFN1_main_am () Int)
(declare-fun RFN1_main_a () Int)
(declare-fun RFN1_main_b () Int)
(declare-fun RFN1_main_bm () Int)
(declare-fun lam28n0 () Int)
(declare-fun lam28n1 () Int)
(declare-fun lam28n2 () Int)
(declare-fun lam28n3 () Int)
(declare-fun lam28n4 () Int)
(declare-fun lam32n0 () Int)
(declare-fun lam32n1 () Int)
(declare-fun lam32n2 () Int)
(declare-fun lam32n3 () Int)
(declare-fun lam32n4 () Int)
(declare-fun lam32n5 () Int)
(declare-fun lam32n6 () Int)
(declare-fun lam36n0 () Int)
(declare-fun lam36n1 () Int)
(declare-fun lam36n2 () Int)
(declare-fun lam36n3 () Int)
(declare-fun lam36n4 () Int)
(declare-fun lam36n5 () Int)
(declare-fun lam40n0 () Int)
(declare-fun lam40n1 () Int)
(declare-fun lam40n2 () Int)
(declare-fun lam40n3 () Int)
(declare-fun lam40n4 () Int)
(declare-fun lam22n0 () Int)
(declare-fun lam22n1 () Int)
(declare-fun lam22n2 () Int)
(declare-fun lam22n3 () Int)
(declare-fun lam22n4 () Int)
(declare-fun lam22n5 () Int)
(declare-fun lam23n0 () Int)
(declare-fun lam23n1 () Int)
(declare-fun lam23n2 () Int)
(declare-fun lam23n3 () Int)
(declare-fun lam23n4 () Int)
(declare-fun lam23n5 () Int)
(declare-fun lam26n0 () Int)
(declare-fun lam26n1 () Int)
(declare-fun lam26n2 () Int)
(declare-fun lam26n3 () Int)
(declare-fun lam26n4 () Int)
(declare-fun lam27n0 () Int)
(declare-fun lam27n1 () Int)
(declare-fun lam27n2 () Int)
(declare-fun lam27n3 () Int)
(declare-fun lam27n4 () Int)
(declare-fun lam30n0 () Int)
(declare-fun lam30n1 () Int)
(declare-fun lam30n2 () Int)
(declare-fun lam30n3 () Int)
(declare-fun lam30n4 () Int)
(declare-fun lam30n5 () Int)
(declare-fun lam30n6 () Int)
(declare-fun lam31n0 () Int)
(declare-fun lam31n1 () Int)
(declare-fun lam31n2 () Int)
(declare-fun lam31n3 () Int)
(declare-fun lam31n4 () Int)
(declare-fun lam31n5 () Int)
(declare-fun lam31n6 () Int)
(declare-fun lam34n0 () Int)
(declare-fun lam34n1 () Int)
(declare-fun lam34n2 () Int)
(declare-fun lam34n3 () Int)
(declare-fun lam34n4 () Int)
(declare-fun lam34n5 () Int)
(declare-fun lam35n0 () Int)
(declare-fun lam35n1 () Int)
(declare-fun lam35n2 () Int)
(declare-fun lam35n3 () Int)
(declare-fun lam35n4 () Int)
(declare-fun lam35n5 () Int)
(declare-fun lam38n0 () Int)
(declare-fun lam38n1 () Int)
(declare-fun lam38n2 () Int)
(declare-fun lam38n3 () Int)
(declare-fun lam38n4 () Int)
(declare-fun lam39n0 () Int)
(declare-fun lam39n1 () Int)
(declare-fun lam39n2 () Int)
(declare-fun lam39n3 () Int)
(declare-fun lam39n4 () Int)
(declare-fun lam21n0 () Int)
(declare-fun lam21n1 () Int)
(declare-fun lam21n2 () Int)
(declare-fun lam21n3 () Int)
(declare-fun lam21n4 () Int)
(declare-fun lam21n5 () Int)
(declare-fun lam25n0 () Int)
(declare-fun lam25n1 () Int)
(declare-fun lam25n2 () Int)
(declare-fun lam25n3 () Int)
(declare-fun lam25n4 () Int)
(declare-fun lam29n0 () Int)
(declare-fun lam29n1 () Int)
(declare-fun lam29n2 () Int)
(declare-fun lam29n3 () Int)
(declare-fun lam29n4 () Int)
(declare-fun lam29n5 () Int)
(declare-fun lam29n6 () Int)
(declare-fun lam33n0 () Int)
(declare-fun lam33n1 () Int)
(declare-fun lam33n2 () Int)
(declare-fun lam33n3 () Int)
(declare-fun lam33n4 () Int)
(declare-fun lam33n5 () Int)
(declare-fun lam37n0 () Int)
(declare-fun lam37n1 () Int)
(declare-fun lam37n2 () Int)
(declare-fun lam37n3 () Int)
(declare-fun lam37n4 () Int)
(assert ( and ( <= ( - 1 ) Nl2main_a1 ) ( <= Nl2main_a1 1 ) ( <= ( - 1 ) Nl2main_b1 ) ( <= Nl2main_b1 1 ) ( <= ( - 1 ) Nl2main_am1 ) ( <= Nl2main_am1 1 ) ( <= ( - 1 ) Nl2main_bm1 ) ( <= Nl2main_bm1 1 ) ( <= ( - 1 ) Nl2main_a2 ) ( <= Nl2main_a2 1 ) ( <= ( - 1 ) Nl2main_b2 ) ( <= Nl2main_b2 1 ) ( <= ( - 1 ) Nl2main_am2 ) ( <= Nl2main_am2 1 ) ( <= ( - 1 ) Nl2main_bm2 ) ( <= Nl2main_bm2 1 ) ))
(assert ( or ( and ( >= lam0n0 0 ) ( >= lam0n1 0 ) ( >= lam0n2 0 ) ( >= lam0n3 0 ) ( >= lam0n4 0 ) ( >= lam0n5 0 ) ( > ( + ( * 1 lam0n2 ) ( * 1 lam0n3 ) ( * Nl2CT1 lam0n4 ) ( * Nl2CT2 lam0n5 ) ( - 1 ) ) 0 ) ( = ( + ( * 1 lam0n0 ) ( * 1 lam0n1 ) ( * 1 lam0n2 ) ( * Nl2main_a1 lam0n4 ) ( * Nl2main_a2 lam0n5 ) ) 0 ) ( = ( + ( * ( - 1 ) lam0n1 ) ( * ( - 1 ) lam0n2 ) ( * Nl2main_b1 lam0n4 ) ( * Nl2main_b2 lam0n5 ) ) 0 ) ( = ( + ( * ( - 1 ) lam0n1 ) ( * 1 lam0n3 ) ( * Nl2main_am1 lam0n4 ) ( * Nl2main_am2 lam0n5 ) ) 0 ) ( = ( + ( * 1 lam0n1 ) ( * ( - 1 ) lam0n3 ) ( * Nl2main_bm1 lam0n4 ) ( * Nl2main_bm2 lam0n5 ) ) 0 ) ) ( and ( >= lam1n0 0 ) ( >= lam1n1 0 ) ( >= lam1n2 0 ) ( >= lam1n3 0 ) ( >= lam1n4 0 ) ( >= lam1n5 0 ) ( > ( + ( * 1 lam1n2 ) ( * 1 lam1n3 ) ( * Nl2CT1 lam1n4 ) ( * Nl2CT2 lam1n5 ) ( - 1 ( + Nl2CT1 ( * Nl2main_am1 0 ) ) ) ) 0 ) ( = ( + ( * 1 lam1n0 ) ( * 1 lam1n1 ) ( * 1 lam1n2 ) ( * Nl2main_a1 lam1n4 ) ( * Nl2main_a2 lam1n5 ) ( - ( + ( + 0 Nl2main_a1 ) ( * Nl2main_am1 1 ) ) ) ) 0 ) ( = ( + ( * ( - 1 ) lam1n1 ) ( * ( - 1 ) lam1n2 ) ( * Nl2main_b1 lam1n4 ) ( * Nl2main_b2 lam1n5 ) ( - ( + 0 Nl2main_b1 ) ) ) 0 ) ( = ( + ( * ( - 1 ) lam1n1 ) ( * 1 lam1n3 ) ( * Nl2main_am1 lam1n4 ) ( * Nl2main_am2 lam1n5 ) ( - ( + 0 ( * Nl2main_am1 1 ) ) ) ) 0 ) ( = ( + ( * 1 lam1n1 ) ( * ( - 1 ) lam1n3 ) ( * Nl2main_bm1 lam1n4 ) ( * Nl2main_bm2 lam1n5 ) ( - ( + 0 Nl2main_bm1 ) ) ) 0 ) ) ))
(assert ( or ( and ( >= lam0n0 0 ) ( >= lam0n1 0 ) ( >= lam0n2 0 ) ( >= lam0n3 0 ) ( >= lam0n4 0 ) ( >= lam0n5 0 ) ( > ( + ( * 1 lam0n2 ) ( * 1 lam0n3 ) ( * Nl2CT1 lam0n4 ) ( * Nl2CT2 lam0n5 ) ( - 1 ) ) 0 ) ( = ( + ( * 1 lam0n0 ) ( * 1 lam0n1 ) ( * 1 lam0n2 ) ( * Nl2main_a1 lam0n4 ) ( * Nl2main_a2 lam0n5 ) ) 0 ) ( = ( + ( * ( - 1 ) lam0n1 ) ( * ( - 1 ) lam0n2 ) ( * Nl2main_b1 lam0n4 ) ( * Nl2main_b2 lam0n5 ) ) 0 ) ( = ( + ( * ( - 1 ) lam0n1 ) ( * 1 lam0n3 ) ( * Nl2main_am1 lam0n4 ) ( * Nl2main_am2 lam0n5 ) ) 0 ) ( = ( + ( * 1 lam0n1 ) ( * ( - 1 ) lam0n3 ) ( * Nl2main_bm1 lam0n4 ) ( * Nl2main_bm2 lam0n5 ) ) 0 ) ) ( and ( >= lam2n0 0 ) ( >= lam2n1 0 ) ( >= lam2n2 0 ) ( >= lam2n3 0 ) ( >= lam2n4 0 ) ( >= lam2n5 0 ) ( > ( + ( * 1 lam2n2 ) ( * 1 lam2n3 ) ( * Nl2CT1 lam2n4 ) ( * Nl2CT2 lam2n5 ) ( - 1 ( + Nl2CT2 ( * Nl2main_am2 0 ) ) ) ) 0 ) ( = ( + ( * 1 lam2n0 ) ( * 1 lam2n1 ) ( * 1 lam2n2 ) ( * Nl2main_a1 lam2n4 ) ( * Nl2main_a2 lam2n5 ) ( - ( + ( + 0 Nl2main_a2 ) ( * Nl2main_am2 1 ) ) ) ) 0 ) ( = ( + ( * ( - 1 ) lam2n1 ) ( * ( - 1 ) lam2n2 ) ( * Nl2main_b1 lam2n4 ) ( * Nl2main_b2 lam2n5 ) ( - ( + 0 Nl2main_b2 ) ) ) 0 ) ( = ( + ( * ( - 1 ) lam2n1 ) ( * 1 lam2n3 ) ( * Nl2main_am1 lam2n4 ) ( * Nl2main_am2 lam2n5 ) ( - ( + 0 ( * Nl2main_am2 1 ) ) ) ) 0 ) ( = ( + ( * 1 lam2n1 ) ( * ( - 1 ) lam2n3 ) ( * Nl2main_bm1 lam2n4 ) ( * Nl2main_bm2 lam2n5 ) ( - ( + 0 Nl2main_bm2 ) ) ) 0 ) ) ))
(assert ( or ( and ( >= lam3n0 0 ) ( >= lam3n1 0 ) ( >= lam3n2 0 ) ( >= lam3n3 0 ) ( >= lam3n4 0 ) ( > ( + ( * 1 lam3n1 ) ( * 1 lam3n2 ) ( * Nl2CT1 lam3n3 ) ( * Nl2CT2 lam3n4 ) ( - 1 ) ) 0 ) ( = ( + ( * 1 lam3n0 ) ( * ( - 1 ) lam3n1 ) ( * Nl2main_a1 lam3n3 ) ( * Nl2main_a2 lam3n4 ) ) 0 ) ( = ( + ( * ( - 1 ) lam3n0 ) ( * Nl2main_b1 lam3n3 ) ( * Nl2main_b2 lam3n4 ) ) 0 ) ( = ( + ( * ( - 1 ) lam3n0 ) ( * 1 lam3n2 ) ( * Nl2main_am1 lam3n3 ) ( * Nl2main_am2 lam3n4 ) ) 0 ) ( = ( + ( * 1 lam3n0 ) ( * ( - 1 ) lam3n2 ) ( * Nl2main_bm1 lam3n3 ) ( * Nl2main_bm2 lam3n4 ) ) 0 ) ) ( and ( >= lam4n0 0 ) ( >= lam4n1 0 ) ( >= lam4n2 0 ) ( >= lam4n3 0 ) ( >= lam4n4 0 ) ( > ( + ( * 1 lam4n1 ) ( * 1 lam4n2 ) ( * Nl2CT1 lam4n3 ) ( * Nl2CT2 lam4n4 ) ( - 1 ( + Nl2CT1 ( * Nl2main_am1 0 ) ) ) ) 0 ) ( = ( + ( * 1 lam4n0 ) ( * ( - 1 ) lam4n1 ) ( * Nl2main_a1 lam4n3 ) ( * Nl2main_a2 lam4n4 ) ( - ( + ( + 0 Nl2main_a1 ) ( * Nl2main_am1 1 ) ) ) ) 0 ) ( = ( + ( * ( - 1 ) lam4n0 ) ( * Nl2main_b1 lam4n3 ) ( * Nl2main_b2 lam4n4 ) ( - ( + 0 Nl2main_b1 ) ) ) 0 ) ( = ( + ( * ( - 1 ) lam4n0 ) ( * 1 lam4n2 ) ( * Nl2main_am1 lam4n3 ) ( * Nl2main_am2 lam4n4 ) ( - ( + 0 ( * Nl2main_am1 1 ) ) ) ) 0 ) ( = ( + ( * 1 lam4n0 ) ( * ( - 1 ) lam4n2 ) ( * Nl2main_bm1 lam4n3 ) ( * Nl2main_bm2 lam4n4 ) ( - ( + 0 Nl2main_bm1 ) ) ) 0 ) ) ))
(assert ( or ( and ( >= lam3n0 0 ) ( >= lam3n1 0 ) ( >= lam3n2 0 ) ( >= lam3n3 0 ) ( >= lam3n4 0 ) ( > ( + ( * 1 lam3n1 ) ( * 1 lam3n2 ) ( * Nl2CT1 lam3n3 ) ( * Nl2CT2 lam3n4 ) ( - 1 ) ) 0 ) ( = ( + ( * 1 lam3n0 ) ( * ( - 1 ) lam3n1 ) ( * Nl2main_a1 lam3n3 ) ( * Nl2main_a2 lam3n4 ) ) 0 ) ( = ( + ( * ( - 1 ) lam3n0 ) ( * Nl2main_b1 lam3n3 ) ( * Nl2main_b2 lam3n4 ) ) 0 ) ( = ( + ( * ( - 1 ) lam3n0 ) ( * 1 lam3n2 ) ( * Nl2main_am1 lam3n3 ) ( * Nl2main_am2 lam3n4 ) ) 0 ) ( = ( + ( * 1 lam3n0 ) ( * ( - 1 ) lam3n2 ) ( * Nl2main_bm1 lam3n3 ) ( * Nl2main_bm2 lam3n4 ) ) 0 ) ) ( and ( >= lam5n0 0 ) ( >= lam5n1 0 ) ( >= lam5n2 0 ) ( >= lam5n3 0 ) ( >= lam5n4 0 ) ( > ( + ( * 1 lam5n1 ) ( * 1 lam5n2 ) ( * Nl2CT1 lam5n3 ) ( * Nl2CT2 lam5n4 ) ( - 1 ( + Nl2CT2 ( * Nl2main_am2 0 ) ) ) ) 0 ) ( = ( + ( * 1 lam5n0 ) ( * ( - 1 ) lam5n1 ) ( * Nl2main_a1 lam5n3 ) ( * Nl2main_a2 lam5n4 ) ( - ( + ( + 0 Nl2main_a2 ) ( * Nl2main_am2 1 ) ) ) ) 0 ) ( = ( + ( * ( - 1 ) lam5n0 ) ( * Nl2main_b1 lam5n3 ) ( * Nl2main_b2 lam5n4 ) ( - ( + 0 Nl2main_b2 ) ) ) 0 ) ( = ( + ( * ( - 1 ) lam5n0 ) ( * 1 lam5n2 ) ( * Nl2main_am1 lam5n3 ) ( * Nl2main_am2 lam5n4 ) ( - ( + 0 ( * Nl2main_am2 1 ) ) ) ) 0 ) ( = ( + ( * 1 lam5n0 ) ( * ( - 1 ) lam5n2 ) ( * Nl2main_bm1 lam5n3 ) ( * Nl2main_bm2 lam5n4 ) ( - ( + 0 Nl2main_bm2 ) ) ) 0 ) ) ))
(assert ( or ( and ( >= lam6n0 0 ) ( >= lam6n1 0 ) ( >= lam6n2 0 ) ( >= lam6n3 0 ) ( >= lam6n4 0 ) ( >= lam6n5 0 ) ( >= lam6n6 0 ) ( > ( + ( * 1 lam6n3 ) ( * 1 lam6n4 ) ( * Nl2CT1 lam6n5 ) ( * Nl2CT2 lam6n6 ) ( - 1 ) ) 0 ) ( = ( + ( * 1 lam6n0 ) ( * 1 lam6n1 ) ( * ( - 1 ) lam6n2 ) ( * 1 lam6n3 ) ( * Nl2main_a1 lam6n5 ) ( * Nl2main_a2 lam6n6 ) ) 0 ) ( = ( + ( * ( - 1 ) lam6n1 ) ( * 1 lam6n2 ) ( * 1 lam6n3 ) ( * Nl2main_b1 lam6n5 ) ( * Nl2main_b2 lam6n6 ) ) 0 ) ( = ( + ( * ( - 1 ) lam6n1 ) ( * ( - 1 ) lam6n3 ) ( * ( - 1 ) lam6n4 ) ( * Nl2main_am1 lam6n5 ) ( * Nl2main_am2 lam6n6 ) ) 0 ) ( = ( + ( * 1 lam6n1 ) ( * 1 lam6n3 ) ( * 1 lam6n4 ) ( * Nl2main_bm1 lam6n5 ) ( * Nl2main_bm2 lam6n6 ) ) 0 ) ) ( and ( >= lam7n0 0 ) ( >= lam7n1 0 ) ( >= lam7n2 0 ) ( >= lam7n3 0 ) ( >= lam7n4 0 ) ( >= lam7n5 0 ) ( >= lam7n6 0 ) ( > ( + ( * 1 lam7n3 ) ( * 1 lam7n4 ) ( * Nl2CT1 lam7n5 ) ( * Nl2CT2 lam7n6 ) ( - 1 ( + Nl2CT1 ( * Nl2main_bm1 0 ) ) ) ) 0 ) ( = ( + ( * 1 lam7n0 ) ( * 1 lam7n1 ) ( * ( - 1 ) lam7n2 ) ( * 1 lam7n3 ) ( * Nl2main_a1 lam7n5 ) ( * Nl2main_a2 lam7n6 ) ( - ( + 0 Nl2main_a1 ) ) ) 0 ) ( = ( + ( * ( - 1 ) lam7n1 ) ( * 1 lam7n2 ) ( * 1 lam7n3 ) ( * Nl2main_b1 lam7n5 ) ( * Nl2main_b2 lam7n6 ) ( - ( + ( + 0 Nl2main_b1 ) ( * Nl2main_bm1 1 ) ) ) ) 0 ) ( = ( + ( * ( - 1 ) lam7n1 ) ( * ( - 1 ) lam7n3 ) ( * ( - 1 ) lam7n4 ) ( * Nl2main_am1 lam7n5 ) ( * Nl2main_am2 lam7n6 ) ( - ( + 0 Nl2main_am1 ) ) ) 0 ) ( = ( + ( * 1 lam7n1 ) ( * 1 lam7n3 ) ( * 1 lam7n4 ) ( * Nl2main_bm1 lam7n5 ) ( * Nl2main_bm2 lam7n6 ) ( - ( + 0 ( * Nl2main_bm1 1 ) ) ) ) 0 ) ) ))
(assert ( or ( and ( >= lam6n0 0 ) ( >= lam6n1 0 ) ( >= lam6n2 0 ) ( >= lam6n3 0 ) ( >= lam6n4 0 ) ( >= lam6n5 0 ) ( >= lam6n6 0 ) ( > ( + ( * 1 lam6n3 ) ( * 1 lam6n4 ) ( * Nl2CT1 lam6n5 ) ( * Nl2CT2 lam6n6 ) ( - 1 ) ) 0 ) ( = ( + ( * 1 lam6n0 ) ( * 1 lam6n1 ) ( * ( - 1 ) lam6n2 ) ( * 1 lam6n3 ) ( * Nl2main_a1 lam6n5 ) ( * Nl2main_a2 lam6n6 ) ) 0 ) ( = ( + ( * ( - 1 ) lam6n1 ) ( * 1 lam6n2 ) ( * 1 lam6n3 ) ( * Nl2main_b1 lam6n5 ) ( * Nl2main_b2 lam6n6 ) ) 0 ) ( = ( + ( * ( - 1 ) lam6n1 ) ( * ( - 1 ) lam6n3 ) ( * ( - 1 ) lam6n4 ) ( * Nl2main_am1 lam6n5 ) ( * Nl2main_am2 lam6n6 ) ) 0 ) ( = ( + ( * 1 lam6n1 ) ( * 1 lam6n3 ) ( * 1 lam6n4 ) ( * Nl2main_bm1 lam6n5 ) ( * Nl2main_bm2 lam6n6 ) ) 0 ) ) ( and ( >= lam8n0 0 ) ( >= lam8n1 0 ) ( >= lam8n2 0 ) ( >= lam8n3 0 ) ( >= lam8n4 0 ) ( >= lam8n5 0 ) ( >= lam8n6 0 ) ( > ( + ( * 1 lam8n3 ) ( * 1 lam8n4 ) ( * Nl2CT1 lam8n5 ) ( * Nl2CT2 lam8n6 ) ( - 1 ( + Nl2CT2 ( * Nl2main_bm2 0 ) ) ) ) 0 ) ( = ( + ( * 1 lam8n0 ) ( * 1 lam8n1 ) ( * ( - 1 ) lam8n2 ) ( * 1 lam8n3 ) ( * Nl2main_a1 lam8n5 ) ( * Nl2main_a2 lam8n6 ) ( - ( + 0 Nl2main_a2 ) ) ) 0 ) ( = ( + ( * ( - 1 ) lam8n1 ) ( * 1 lam8n2 ) ( * 1 lam8n3 ) ( * Nl2main_b1 lam8n5 ) ( * Nl2main_b2 lam8n6 ) ( - ( + ( + 0 Nl2main_b2 ) ( * Nl2main_bm2 1 ) ) ) ) 0 ) ( = ( + ( * ( - 1 ) lam8n1 ) ( * ( - 1 ) lam8n3 ) ( * ( - 1 ) lam8n4 ) ( * Nl2main_am1 lam8n5 ) ( * Nl2main_am2 lam8n6 ) ( - ( + 0 Nl2main_am2 ) ) ) 0 ) ( = ( + ( * 1 lam8n1 ) ( * 1 lam8n3 ) ( * 1 lam8n4 ) ( * Nl2main_bm1 lam8n5 ) ( * Nl2main_bm2 lam8n6 ) ( - ( + 0 ( * Nl2main_bm2 1 ) ) ) ) 0 ) ) ))
(assert ( or ( and ( >= lam9n0 0 ) ( >= lam9n1 0 ) ( >= lam9n2 0 ) ( >= lam9n3 0 ) ( >= lam9n4 0 ) ( >= lam9n5 0 ) ( > ( + ( * 1 lam9n2 ) ( * 1 lam9n3 ) ( * Nl2CT1 lam9n4 ) ( * Nl2CT2 lam9n5 ) ( - 1 ) ) 0 ) ( = ( + ( * 1 lam9n0 ) ( * 1 lam9n1 ) ( * 1 lam9n2 ) ( * Nl2main_a1 lam9n4 ) ( * Nl2main_a2 lam9n5 ) ) 0 ) ( = ( + ( * ( - 1 ) lam9n1 ) ( * ( - 1 ) lam9n2 ) ( * Nl2main_b1 lam9n4 ) ( * Nl2main_b2 lam9n5 ) ) 0 ) ( = ( + ( * ( - 1 ) lam9n1 ) ( * ( - 1 ) lam9n3 ) ( * Nl2main_am1 lam9n4 ) ( * Nl2main_am2 lam9n5 ) ) 0 ) ( = ( + ( * 1 lam9n1 ) ( * 1 lam9n3 ) ( * Nl2main_bm1 lam9n4 ) ( * Nl2main_bm2 lam9n5 ) ) 0 ) ) ( and ( >= lam10n0 0 ) ( >= lam10n1 0 ) ( >= lam10n2 0 ) ( >= lam10n3 0 ) ( >= lam10n4 0 ) ( >= lam10n5 0 ) ( > ( + ( * 1 lam10n2 ) ( * 1 lam10n3 ) ( * Nl2CT1 lam10n4 ) ( * Nl2CT2 lam10n5 ) ( - 1 ( + Nl2CT1 ( * Nl2main_bm1 0 ) ) ) ) 0 ) ( = ( + ( * 1 lam10n0 ) ( * 1 lam10n1 ) ( * 1 lam10n2 ) ( * Nl2main_a1 lam10n4 ) ( * Nl2main_a2 lam10n5 ) ( - ( + 0 Nl2main_a1 ) ) ) 0 ) ( = ( + ( * ( - 1 ) lam10n1 ) ( * ( - 1 ) lam10n2 ) ( * Nl2main_b1 lam10n4 ) ( * Nl2main_b2 lam10n5 ) ( - ( + ( + 0 Nl2main_b1 ) ( * Nl2main_bm1 1 ) ) ) ) 0 ) ( = ( + ( * ( - 1 ) lam10n1 ) ( * ( - 1 ) lam10n3 ) ( * Nl2main_am1 lam10n4 ) ( * Nl2main_am2 lam10n5 ) ( - ( + 0 Nl2main_am1 ) ) ) 0 ) ( = ( + ( * 1 lam10n1 ) ( * 1 lam10n3 ) ( * Nl2main_bm1 lam10n4 ) ( * Nl2main_bm2 lam10n5 ) ( - ( + 0 ( * Nl2main_bm1 1 ) ) ) ) 0 ) ) ))
(assert ( or ( and ( >= lam9n0 0 ) ( >= lam9n1 0 ) ( >= lam9n2 0 ) ( >= lam9n3 0 ) ( >= lam9n4 0 ) ( >= lam9n5 0 ) ( > ( + ( * 1 lam9n2 ) ( * 1 lam9n3 ) ( * Nl2CT1 lam9n4 ) ( * Nl2CT2 lam9n5 ) ( - 1 ) ) 0 ) ( = ( + ( * 1 lam9n0 ) ( * 1 lam9n1 ) ( * 1 lam9n2 ) ( * Nl2main_a1 lam9n4 ) ( * Nl2main_a2 lam9n5 ) ) 0 ) ( = ( + ( * ( - 1 ) lam9n1 ) ( * ( - 1 ) lam9n2 ) ( * Nl2main_b1 lam9n4 ) ( * Nl2main_b2 lam9n5 ) ) 0 ) ( = ( + ( * ( - 1 ) lam9n1 ) ( * ( - 1 ) lam9n3 ) ( * Nl2main_am1 lam9n4 ) ( * Nl2main_am2 lam9n5 ) ) 0 ) ( = ( + ( * 1 lam9n1 ) ( * 1 lam9n3 ) ( * Nl2main_bm1 lam9n4 ) ( * Nl2main_bm2 lam9n5 ) ) 0 ) ) ( and ( >= lam11n0 0 ) ( >= lam11n1 0 ) ( >= lam11n2 0 ) ( >= lam11n3 0 ) ( >= lam11n4 0 ) ( >= lam11n5 0 ) ( > ( + ( * 1 lam11n2 ) ( * 1 lam11n3 ) ( * Nl2CT1 lam11n4 ) ( * Nl2CT2 lam11n5 ) ( - 1 ( + Nl2CT2 ( * Nl2main_bm2 0 ) ) ) ) 0 ) ( = ( + ( * 1 lam11n0 ) ( * 1 lam11n1 ) ( * 1 lam11n2 ) ( * Nl2main_a1 lam11n4 ) ( * Nl2main_a2 lam11n5 ) ( - ( + 0 Nl2main_a2 ) ) ) 0 ) ( = ( + ( * ( - 1 ) lam11n1 ) ( * ( - 1 ) lam11n2 ) ( * Nl2main_b1 lam11n4 ) ( * Nl2main_b2 lam11n5 ) ( - ( + ( + 0 Nl2main_b2 ) ( * Nl2main_bm2 1 ) ) ) ) 0 ) ( = ( + ( * ( - 1 ) lam11n1 ) ( * ( - 1 ) lam11n3 ) ( * Nl2main_am1 lam11n4 ) ( * Nl2main_am2 lam11n5 ) ( - ( + 0 Nl2main_am2 ) ) ) 0 ) ( = ( + ( * 1 lam11n1 ) ( * 1 lam11n3 ) ( * Nl2main_bm1 lam11n4 ) ( * Nl2main_bm2 lam11n5 ) ( - ( + 0 ( * Nl2main_bm2 1 ) ) ) ) 0 ) ) ))
(assert ( or ( and ( >= lam12n0 0 ) ( >= lam12n1 0 ) ( >= lam12n2 0 ) ( >= lam12n3 0 ) ( >= lam12n4 0 ) ( > ( + ( * 1 lam12n1 ) ( * 1 lam12n2 ) ( * Nl2CT1 lam12n3 ) ( * Nl2CT2 lam12n4 ) ( - 1 ) ) 0 ) ( = ( + ( * 1 lam12n0 ) ( * ( - 1 ) lam12n1 ) ( * Nl2main_a1 lam12n3 ) ( * Nl2main_a2 lam12n4 ) ) 0 ) ( = ( + ( * ( - 1 ) lam12n0 ) ( * Nl2main_b1 lam12n3 ) ( * Nl2main_b2 lam12n4 ) ) 0 ) ( = ( + ( * ( - 1 ) lam12n0 ) ( * ( - 1 ) lam12n2 ) ( * Nl2main_am1 lam12n3 ) ( * Nl2main_am2 lam12n4 ) ) 0 ) ( = ( + ( * 1 lam12n0 ) ( * 1 lam12n2 ) ( * Nl2main_bm1 lam12n3 ) ( * Nl2main_bm2 lam12n4 ) ) 0 ) ) ( and ( >= lam13n0 0 ) ( >= lam13n1 0 ) ( >= lam13n2 0 ) ( >= lam13n3 0 ) ( >= lam13n4 0 ) ( > ( + ( * 1 lam13n1 ) ( * 1 lam13n2 ) ( * Nl2CT1 lam13n3 ) ( * Nl2CT2 lam13n4 ) ( - 1 ( + Nl2CT1 ( * Nl2main_bm1 0 ) ) ) ) 0 ) ( = ( + ( * 1 lam13n0 ) ( * ( - 1 ) lam13n1 ) ( * Nl2main_a1 lam13n3 ) ( * Nl2main_a2 lam13n4 ) ( - ( + 0 Nl2main_a1 ) ) ) 0 ) ( = ( + ( * ( - 1 ) lam13n0 ) ( * Nl2main_b1 lam13n3 ) ( * Nl2main_b2 lam13n4 ) ( - ( + ( + 0 Nl2main_b1 ) ( * Nl2main_bm1 1 ) ) ) ) 0 ) ( = ( + ( * ( - 1 ) lam13n0 ) ( * ( - 1 ) lam13n2 ) ( * Nl2main_am1 lam13n3 ) ( * Nl2main_am2 lam13n4 ) ( - ( + 0 Nl2main_am1 ) ) ) 0 ) ( = ( + ( * 1 lam13n0 ) ( * 1 lam13n2 ) ( * Nl2main_bm1 lam13n3 ) ( * Nl2main_bm2 lam13n4 ) ( - ( + 0 ( * Nl2main_bm1 1 ) ) ) ) 0 ) ) ))
(assert ( or ( and ( >= lam12n0 0 ) ( >= lam12n1 0 ) ( >= lam12n2 0 ) ( >= lam12n3 0 ) ( >= lam12n4 0 ) ( > ( + ( * 1 lam12n1 ) ( * 1 lam12n2 ) ( * Nl2CT1 lam12n3 ) ( * Nl2CT2 lam12n4 ) ( - 1 ) ) 0 ) ( = ( + ( * 1 lam12n0 ) ( * ( - 1 ) lam12n1 ) ( * Nl2main_a1 lam12n3 ) ( * Nl2main_a2 lam12n4 ) ) 0 ) ( = ( + ( * ( - 1 ) lam12n0 ) ( * Nl2main_b1 lam12n3 ) ( * Nl2main_b2 lam12n4 ) ) 0 ) ( = ( + ( * ( - 1 ) lam12n0 ) ( * ( - 1 ) lam12n2 ) ( * Nl2main_am1 lam12n3 ) ( * Nl2main_am2 lam12n4 ) ) 0 ) ( = ( + ( * 1 lam12n0 ) ( * 1 lam12n2 ) ( * Nl2main_bm1 lam12n3 ) ( * Nl2main_bm2 lam12n4 ) ) 0 ) ) ( and ( >= lam14n0 0 ) ( >= lam14n1 0 ) ( >= lam14n2 0 ) ( >= lam14n3 0 ) ( >= lam14n4 0 ) ( > ( + ( * 1 lam14n1 ) ( * 1 lam14n2 ) ( * Nl2CT1 lam14n3 ) ( * Nl2CT2 lam14n4 ) ( - 1 ( + Nl2CT2 ( * Nl2main_bm2 0 ) ) ) ) 0 ) ( = ( + ( * 1 lam14n0 ) ( * ( - 1 ) lam14n1 ) ( * Nl2main_a1 lam14n3 ) ( * Nl2main_a2 lam14n4 ) ( - ( + 0 Nl2main_a2 ) ) ) 0 ) ( = ( + ( * ( - 1 ) lam14n0 ) ( * Nl2main_b1 lam14n3 ) ( * Nl2main_b2 lam14n4 ) ( - ( + ( + 0 Nl2main_b2 ) ( * Nl2main_bm2 1 ) ) ) ) 0 ) ( = ( + ( * ( - 1 ) lam14n0 ) ( * ( - 1 ) lam14n2 ) ( * Nl2main_am1 lam14n3 ) ( * Nl2main_am2 lam14n4 ) ( - ( + 0 Nl2main_am2 ) ) ) 0 ) ( = ( + ( * 1 lam14n0 ) ( * 1 lam14n2 ) ( * Nl2main_bm1 lam14n3 ) ( * Nl2main_bm2 lam14n4 ) ( - ( + 0 ( * Nl2main_bm2 1 ) ) ) ) 0 ) ) ))
(assert ( or ( and ( <= main_a 0 ) ( <= ( + ( * ( - 1 ) main_a ) main_b ) 0 ) ( not ( <= ( + ( * ( - 1 ) main_a ) ( * ( - 1 ) main_b ) main_am ( * ( - 1 ) main_bm ) ) 0 ) ) ( not ( <= ( + main_am ( * ( - 1 ) main_bm ) ) 0 ) ) ( = ( + main_a ( * ( - 1 ) main_am ) ) 0 ) ( = ( + main_b ( * ( - 1 ) main_bm ) ) 0 ) ( <= ( + Nl2CT1 ( * ( + 0 Nl2main_a1 ) main_a ) ( * ( + 0 Nl2main_b1 ) main_b ) ( * ( + 0 Nl2main_am1 ) main_am ) ( * ( + 0 Nl2main_bm1 ) main_bm ) ) 0 ) ( <= ( + Nl2CT2 ( * ( + 0 Nl2main_a2 ) main_a ) ( * ( + 0 Nl2main_b2 ) main_b ) ( * ( + 0 Nl2main_am2 ) main_am ) ( * ( + 0 Nl2main_bm2 ) main_bm ) ) 0 ) ) ( and ( <= main_a 0 ) ( not ( <= ( + ( * ( - 1 ) main_a ) main_b ) 0 ) ) ( = ( + main_a ( * ( - 1 ) main_am ) ) 0 ) ( = ( + main_b ( * ( - 1 ) main_bm ) ) 0 ) ( <= ( + Nl2CT1 ( * ( + 0 Nl2main_a1 ) main_a ) ( * ( + 0 Nl2main_b1 ) main_b ) ( * ( + 0 Nl2main_am1 ) main_am ) ( * ( + 0 Nl2main_bm1 ) main_bm ) ) 0 ) ( <= ( + Nl2CT2 ( * ( + 0 Nl2main_a2 ) main_a ) ( * ( + 0 Nl2main_b2 ) main_b ) ( * ( + 0 Nl2main_am2 ) main_am ) ( * ( + 0 Nl2main_bm2 ) main_bm ) ) 0 ) ) ( and ( not ( <= main_a 0 ) ) ( = ( + main_a ( * ( - 1 ) main_am ) ) 0 ) ( = ( + main_b ( * ( - 1 ) main_bm ) ) 0 ) ( <= ( + Nl2CT1 ( * ( + 0 Nl2main_a1 ) main_a ) ( * ( + 0 Nl2main_b1 ) main_b ) ( * ( + 0 Nl2main_am1 ) main_am ) ( * ( + 0 Nl2main_bm1 ) main_bm ) ) 0 ) ( <= ( + Nl2CT2 ( * ( + 0 Nl2main_a2 ) main_a ) ( * ( + 0 Nl2main_b2 ) main_b ) ( * ( + 0 Nl2main_am2 ) main_am ) ( * ( + 0 Nl2main_bm2 ) main_bm ) ) 0 ) ) ))
(assert ( or ( and ( and ( and ( >= lam24n0 0 ) ( >= lam24n1 0 ) ( >= lam24n2 0 ) ( >= lam24n3 0 ) ( >= lam24n4 0 ) ( >= lam24n5 0 ) ( > ( + ( * 1 lam24n2 ) ( * 1 lam24n3 ) ( * Nl2CT1 lam24n4 ) ( * Nl2CT2 lam24n5 ) ( - 1 ( - ( + RFN1_CT ( * RFN1_main_am 0 ) ) RFN1_CT ) ) ) 0 ) ( = ( + ( * 1 lam24n0 ) ( * 1 lam24n1 ) ( * 1 lam24n2 ) ( * Nl2main_a1 lam24n4 ) ( * Nl2main_a2 lam24n5 ) ( - ( - ( + ( + 0 RFN1_main_a ) ( * RFN1_main_am 1 ) ) RFN1_main_a ) ) ) 0 ) ( = ( + ( * ( - 1 ) lam24n1 ) ( * ( - 1 ) lam24n2 ) ( * Nl2main_b1 lam24n4 ) ( * Nl2main_b2 lam24n5 ) ( - ( - ( + 0 RFN1_main_b ) RFN1_main_b ) ) ) 0 ) ( = ( + ( * ( - 1 ) lam24n1 ) ( * 1 lam24n3 ) ( * Nl2main_am1 lam24n4 ) ( * Nl2main_am2 lam24n5 ) ( - ( - ( + 0 ( * RFN1_main_am 1 ) ) RFN1_main_am ) ) ) 0 ) ( = ( + ( * 1 lam24n1 ) ( * ( - 1 ) lam24n3 ) ( * Nl2main_bm1 lam24n4 ) ( * Nl2main_bm2 lam24n5 ) ( - ( - ( + 0 RFN1_main_bm ) RFN1_main_bm ) ) ) 0 ) ) ( and ( >= lam28n0 0 ) ( >= lam28n1 0 ) ( >= lam28n2 0 ) ( >= lam28n3 0 ) ( >= lam28n4 0 ) ( > ( + ( * 1 lam28n1 ) ( * 1 lam28n2 ) ( * Nl2CT1 lam28n3 ) ( * Nl2CT2 lam28n4 ) ( - 1 ( - ( + RFN1_CT ( * RFN1_main_am 0 ) ) RFN1_CT ) ) ) 0 ) ( = ( + ( * 1 lam28n0 ) ( * ( - 1 ) lam28n1 ) ( * Nl2main_a1 lam28n3 ) ( * Nl2main_a2 lam28n4 ) ( - ( - ( + ( + 0 RFN1_main_a ) ( * RFN1_main_am 1 ) ) RFN1_main_a ) ) ) 0 ) ( = ( + ( * ( - 1 ) lam28n0 ) ( * Nl2main_b1 lam28n3 ) ( * Nl2main_b2 lam28n4 ) ( - ( - ( + 0 RFN1_main_b ) RFN1_main_b ) ) ) 0 ) ( = ( + ( * ( - 1 ) lam28n0 ) ( * 1 lam28n2 ) ( * Nl2main_am1 lam28n3 ) ( * Nl2main_am2 lam28n4 ) ( - ( - ( + 0 ( * RFN1_main_am 1 ) ) RFN1_main_am ) ) ) 0 ) ( = ( + ( * 1 lam28n0 ) ( * ( - 1 ) lam28n2 ) ( * Nl2main_bm1 lam28n3 ) ( * Nl2main_bm2 lam28n4 ) ( - ( - ( + 0 RFN1_main_bm ) RFN1_main_bm ) ) ) 0 ) ) ( and ( >= lam32n0 0 ) ( >= lam32n1 0 ) ( >= lam32n2 0 ) ( >= lam32n3 0 ) ( >= lam32n4 0 ) ( >= lam32n5 0 ) ( >= lam32n6 0 ) ( > ( + ( * 1 lam32n3 ) ( * 1 lam32n4 ) ( * Nl2CT1 lam32n5 ) ( * Nl2CT2 lam32n6 ) ( - 1 ( - ( + RFN1_CT ( * RFN1_main_bm 0 ) ) RFN1_CT ) ) ) 0 ) ( = ( + ( * 1 lam32n0 ) ( * 1 lam32n1 ) ( * ( - 1 ) lam32n2 ) ( * 1 lam32n3 ) ( * Nl2main_a1 lam32n5 ) ( * Nl2main_a2 lam32n6 ) ( - ( - ( + 0 RFN1_main_a ) RFN1_main_a ) ) ) 0 ) ( = ( + ( * ( - 1 ) lam32n1 ) ( * 1 lam32n2 ) ( * 1 lam32n3 ) ( * Nl2main_b1 lam32n5 ) ( * Nl2main_b2 lam32n6 ) ( - ( - ( + ( + 0 RFN1_main_b ) ( * RFN1_main_bm 1 ) ) RFN1_main_b ) ) ) 0 ) ( = ( + ( * ( - 1 ) lam32n1 ) ( * ( - 1 ) lam32n3 ) ( * ( - 1 ) lam32n4 ) ( * Nl2main_am1 lam32n5 ) ( * Nl2main_am2 lam32n6 ) ( - ( - ( + 0 RFN1_main_am ) RFN1_main_am ) ) ) 0 ) ( = ( + ( * 1 lam32n1 ) ( * 1 lam32n3 ) ( * 1 lam32n4 ) ( * Nl2main_bm1 lam32n5 ) ( * Nl2main_bm2 lam32n6 ) ( - ( - ( + 0 ( * RFN1_main_bm 1 ) ) RFN1_main_bm ) ) ) 0 ) ) ( and ( >= lam36n0 0 ) ( >= lam36n1 0 ) ( >= lam36n2 0 ) ( >= lam36n3 0 ) ( >= lam36n4 0 ) ( >= lam36n5 0 ) ( > ( + ( * 1 lam36n2 ) ( * 1 lam36n3 ) ( * Nl2CT1 lam36n4 ) ( * Nl2CT2 lam36n5 ) ( - 1 ( - ( + RFN1_CT ( * RFN1_main_bm 0 ) ) RFN1_CT ) ) ) 0 ) ( = ( + ( * 1 lam36n0 ) ( * 1 lam36n1 ) ( * 1 lam36n2 ) ( * Nl2main_a1 lam36n4 ) ( * Nl2main_a2 lam36n5 ) ( - ( - ( + 0 RFN1_main_a ) RFN1_main_a ) ) ) 0 ) ( = ( + ( * ( - 1 ) lam36n1 ) ( * ( - 1 ) lam36n2 ) ( * Nl2main_b1 lam36n4 ) ( * Nl2main_b2 lam36n5 ) ( - ( - ( + ( + 0 RFN1_main_b ) ( * RFN1_main_bm 1 ) ) RFN1_main_b ) ) ) 0 ) ( = ( + ( * ( - 1 ) lam36n1 ) ( * ( - 1 ) lam36n3 ) ( * Nl2main_am1 lam36n4 ) ( * Nl2main_am2 lam36n5 ) ( - ( - ( + 0 RFN1_main_am ) RFN1_main_am ) ) ) 0 ) ( = ( + ( * 1 lam36n1 ) ( * 1 lam36n3 ) ( * Nl2main_bm1 lam36n4 ) ( * Nl2main_bm2 lam36n5 ) ( - ( - ( + 0 ( * RFN1_main_bm 1 ) ) RFN1_main_bm ) ) ) 0 ) ) ( and ( >= lam40n0 0 ) ( >= lam40n1 0 ) ( >= lam40n2 0 ) ( >= lam40n3 0 ) ( >= lam40n4 0 ) ( > ( + ( * 1 lam40n1 ) ( * 1 lam40n2 ) ( * Nl2CT1 lam40n3 ) ( * Nl2CT2 lam40n4 ) ( - 1 ( - ( + RFN1_CT ( * RFN1_main_bm 0 ) ) RFN1_CT ) ) ) 0 ) ( = ( + ( * 1 lam40n0 ) ( * ( - 1 ) lam40n1 ) ( * Nl2main_a1 lam40n3 ) ( * Nl2main_a2 lam40n4 ) ( - ( - ( + 0 RFN1_main_a ) RFN1_main_a ) ) ) 0 ) ( = ( + ( * ( - 1 ) lam40n0 ) ( * Nl2main_b1 lam40n3 ) ( * Nl2main_b2 lam40n4 ) ( - ( - ( + ( + 0 RFN1_main_b ) ( * RFN1_main_bm 1 ) ) RFN1_main_b ) ) ) 0 ) ( = ( + ( * ( - 1 ) lam40n0 ) ( * ( - 1 ) lam40n2 ) ( * Nl2main_am1 lam40n3 ) ( * Nl2main_am2 lam40n4 ) ( - ( - ( + 0 RFN1_main_am ) RFN1_main_am ) ) ) 0 ) ( = ( + ( * 1 lam40n0 ) ( * 1 lam40n2 ) ( * Nl2main_bm1 lam40n3 ) ( * Nl2main_bm2 lam40n4 ) ( - ( - ( + 0 ( * RFN1_main_bm 1 ) ) RFN1_main_bm ) ) ) 0 ) ) ) ( or ( and ( and ( >= lam22n0 0 ) ( >= lam22n1 0 ) ( >= lam22n2 0 ) ( >= lam22n3 0 ) ( >= lam22n4 0 ) ( >= lam22n5 0 ) ( > ( + ( * 1 lam22n2 ) ( * 1 lam22n3 ) ( * Nl2CT1 lam22n4 ) ( * Nl2CT2 lam22n5 ) ( - 1 ( - RFN1_CT ) ) ) 0 ) ( = ( + ( * 1 lam22n0 ) ( * 1 lam22n1 ) ( * 1 lam22n2 ) ( * Nl2main_a1 lam22n4 ) ( * Nl2main_a2 lam22n5 ) ( - ( - RFN1_main_a ) ) ) 0 ) ( = ( + ( * ( - 1 ) lam22n1 ) ( * ( - 1 ) lam22n2 ) ( * Nl2main_b1 lam22n4 ) ( * Nl2main_b2 lam22n5 ) ( - ( - RFN1_main_b ) ) ) 0 ) ( = ( + ( * ( - 1 ) lam22n1 ) ( * 1 lam22n3 ) ( * Nl2main_am1 lam22n4 ) ( * Nl2main_am2 lam22n5 ) ( - ( - RFN1_main_am ) ) ) 0 ) ( = ( + ( * 1 lam22n1 ) ( * ( - 1 ) lam22n3 ) ( * Nl2main_bm1 lam22n4 ) ( * Nl2main_bm2 lam22n5 ) ( - ( - RFN1_main_bm ) ) ) 0 ) ) ( and ( >= lam23n0 0 ) ( >= lam23n1 0 ) ( >= lam23n2 0 ) ( >= lam23n3 0 ) ( >= lam23n4 0 ) ( >= lam23n5 0 ) ( > ( + ( * 1 lam23n2 ) ( * 1 lam23n3 ) ( * Nl2CT1 lam23n4 ) ( * Nl2CT2 lam23n5 ) ( - 1 ( + ( - ( + RFN1_CT ( * RFN1_main_am 0 ) ) RFN1_CT ) 1 ) ) ) 0 ) ( = ( + ( * 1 lam23n0 ) ( * 1 lam23n1 ) ( * 1 lam23n2 ) ( * Nl2main_a1 lam23n4 ) ( * Nl2main_a2 lam23n5 ) ( - ( - ( + ( + 0 RFN1_main_a ) ( * RFN1_main_am 1 ) ) RFN1_main_a ) ) ) 0 ) ( = ( + ( * ( - 1 ) lam23n1 ) ( * ( - 1 ) lam23n2 ) ( * Nl2main_b1 lam23n4 ) ( * Nl2main_b2 lam23n5 ) ( - ( - ( + 0 RFN1_main_b ) RFN1_main_b ) ) ) 0 ) ( = ( + ( * ( - 1 ) lam23n1 ) ( * 1 lam23n3 ) ( * Nl2main_am1 lam23n4 ) ( * Nl2main_am2 lam23n5 ) ( - ( - ( + 0 ( * RFN1_main_am 1 ) ) RFN1_main_am ) ) ) 0 ) ( = ( + ( * 1 lam23n1 ) ( * ( - 1 ) lam23n3 ) ( * Nl2main_bm1 lam23n4 ) ( * Nl2main_bm2 lam23n5 ) ( - ( - ( + 0 RFN1_main_bm ) RFN1_main_bm ) ) ) 0 ) ) ) ( and ( and ( >= lam26n0 0 ) ( >= lam26n1 0 ) ( >= lam26n2 0 ) ( >= lam26n3 0 ) ( >= lam26n4 0 ) ( > ( + ( * 1 lam26n1 ) ( * 1 lam26n2 ) ( * Nl2CT1 lam26n3 ) ( * Nl2CT2 lam26n4 ) ( - 1 ( - RFN1_CT ) ) ) 0 ) ( = ( + ( * 1 lam26n0 ) ( * ( - 1 ) lam26n1 ) ( * Nl2main_a1 lam26n3 ) ( * Nl2main_a2 lam26n4 ) ( - ( - RFN1_main_a ) ) ) 0 ) ( = ( + ( * ( - 1 ) lam26n0 ) ( * Nl2main_b1 lam26n3 ) ( * Nl2main_b2 lam26n4 ) ( - ( - RFN1_main_b ) ) ) 0 ) ( = ( + ( * ( - 1 ) lam26n0 ) ( * 1 lam26n2 ) ( * Nl2main_am1 lam26n3 ) ( * Nl2main_am2 lam26n4 ) ( - ( - RFN1_main_am ) ) ) 0 ) ( = ( + ( * 1 lam26n0 ) ( * ( - 1 ) lam26n2 ) ( * Nl2main_bm1 lam26n3 ) ( * Nl2main_bm2 lam26n4 ) ( - ( - RFN1_main_bm ) ) ) 0 ) ) ( and ( >= lam27n0 0 ) ( >= lam27n1 0 ) ( >= lam27n2 0 ) ( >= lam27n3 0 ) ( >= lam27n4 0 ) ( > ( + ( * 1 lam27n1 ) ( * 1 lam27n2 ) ( * Nl2CT1 lam27n3 ) ( * Nl2CT2 lam27n4 ) ( - 1 ( + ( - ( + RFN1_CT ( * RFN1_main_am 0 ) ) RFN1_CT ) 1 ) ) ) 0 ) ( = ( + ( * 1 lam27n0 ) ( * ( - 1 ) lam27n1 ) ( * Nl2main_a1 lam27n3 ) ( * Nl2main_a2 lam27n4 ) ( - ( - ( + ( + 0 RFN1_main_a ) ( * RFN1_main_am 1 ) ) RFN1_main_a ) ) ) 0 ) ( = ( + ( * ( - 1 ) lam27n0 ) ( * Nl2main_b1 lam27n3 ) ( * Nl2main_b2 lam27n4 ) ( - ( - ( + 0 RFN1_main_b ) RFN1_main_b ) ) ) 0 ) ( = ( + ( * ( - 1 ) lam27n0 ) ( * 1 lam27n2 ) ( * Nl2main_am1 lam27n3 ) ( * Nl2main_am2 lam27n4 ) ( - ( - ( + 0 ( * RFN1_main_am 1 ) ) RFN1_main_am ) ) ) 0 ) ( = ( + ( * 1 lam27n0 ) ( * ( - 1 ) lam27n2 ) ( * Nl2main_bm1 lam27n3 ) ( * Nl2main_bm2 lam27n4 ) ( - ( - ( + 0 RFN1_main_bm ) RFN1_main_bm ) ) ) 0 ) ) ) ( and ( and ( >= lam30n0 0 ) ( >= lam30n1 0 ) ( >= lam30n2 0 ) ( >= lam30n3 0 ) ( >= lam30n4 0 ) ( >= lam30n5 0 ) ( >= lam30n6 0 ) ( > ( + ( * 1 lam30n3 ) ( * 1 lam30n4 ) ( * Nl2CT1 lam30n5 ) ( * Nl2CT2 lam30n6 ) ( - 1 ( - RFN1_CT ) ) ) 0 ) ( = ( + ( * 1 lam30n0 ) ( * 1 lam30n1 ) ( * ( - 1 ) lam30n2 ) ( * 1 lam30n3 ) ( * Nl2main_a1 lam30n5 ) ( * Nl2main_a2 lam30n6 ) ( - ( - RFN1_main_a ) ) ) 0 ) ( = ( + ( * ( - 1 ) lam30n1 ) ( * 1 lam30n2 ) ( * 1 lam30n3 ) ( * Nl2main_b1 lam30n5 ) ( * Nl2main_b2 lam30n6 ) ( - ( - RFN1_main_b ) ) ) 0 ) ( = ( + ( * ( - 1 ) lam30n1 ) ( * ( - 1 ) lam30n3 ) ( * ( - 1 ) lam30n4 ) ( * Nl2main_am1 lam30n5 ) ( * Nl2main_am2 lam30n6 ) ( - ( - RFN1_main_am ) ) ) 0 ) ( = ( + ( * 1 lam30n1 ) ( * 1 lam30n3 ) ( * 1 lam30n4 ) ( * Nl2main_bm1 lam30n5 ) ( * Nl2main_bm2 lam30n6 ) ( - ( - RFN1_main_bm ) ) ) 0 ) ) ( and ( >= lam31n0 0 ) ( >= lam31n1 0 ) ( >= lam31n2 0 ) ( >= lam31n3 0 ) ( >= lam31n4 0 ) ( >= lam31n5 0 ) ( >= lam31n6 0 ) ( > ( + ( * 1 lam31n3 ) ( * 1 lam31n4 ) ( * Nl2CT1 lam31n5 ) ( * Nl2CT2 lam31n6 ) ( - 1 ( + ( - ( + RFN1_CT ( * RFN1_main_bm 0 ) ) RFN1_CT ) 1 ) ) ) 0 ) ( = ( + ( * 1 lam31n0 ) ( * 1 lam31n1 ) ( * ( - 1 ) lam31n2 ) ( * 1 lam31n3 ) ( * Nl2main_a1 lam31n5 ) ( * Nl2main_a2 lam31n6 ) ( - ( - ( + 0 RFN1_main_a ) RFN1_main_a ) ) ) 0 ) ( = ( + ( * ( - 1 ) lam31n1 ) ( * 1 lam31n2 ) ( * 1 lam31n3 ) ( * Nl2main_b1 lam31n5 ) ( * Nl2main_b2 lam31n6 ) ( - ( - ( + ( + 0 RFN1_main_b ) ( * RFN1_main_bm 1 ) ) RFN1_main_b ) ) ) 0 ) ( = ( + ( * ( - 1 ) lam31n1 ) ( * ( - 1 ) lam31n3 ) ( * ( - 1 ) lam31n4 ) ( * Nl2main_am1 lam31n5 ) ( * Nl2main_am2 lam31n6 ) ( - ( - ( + 0 RFN1_main_am ) RFN1_main_am ) ) ) 0 ) ( = ( + ( * 1 lam31n1 ) ( * 1 lam31n3 ) ( * 1 lam31n4 ) ( * Nl2main_bm1 lam31n5 ) ( * Nl2main_bm2 lam31n6 ) ( - ( - ( + 0 ( * RFN1_main_bm 1 ) ) RFN1_main_bm ) ) ) 0 ) ) ) ( and ( and ( >= lam34n0 0 ) ( >= lam34n1 0 ) ( >= lam34n2 0 ) ( >= lam34n3 0 ) ( >= lam34n4 0 ) ( >= lam34n5 0 ) ( > ( + ( * 1 lam34n2 ) ( * 1 lam34n3 ) ( * Nl2CT1 lam34n4 ) ( * Nl2CT2 lam34n5 ) ( - 1 ( - RFN1_CT ) ) ) 0 ) ( = ( + ( * 1 lam34n0 ) ( * 1 lam34n1 ) ( * 1 lam34n2 ) ( * Nl2main_a1 lam34n4 ) ( * Nl2main_a2 lam34n5 ) ( - ( - RFN1_main_a ) ) ) 0 ) ( = ( + ( * ( - 1 ) lam34n1 ) ( * ( - 1 ) lam34n2 ) ( * Nl2main_b1 lam34n4 ) ( * Nl2main_b2 lam34n5 ) ( - ( - RFN1_main_b ) ) ) 0 ) ( = ( + ( * ( - 1 ) lam34n1 ) ( * ( - 1 ) lam34n3 ) ( * Nl2main_am1 lam34n4 ) ( * Nl2main_am2 lam34n5 ) ( - ( - RFN1_main_am ) ) ) 0 ) ( = ( + ( * 1 lam34n1 ) ( * 1 lam34n3 ) ( * Nl2main_bm1 lam34n4 ) ( * Nl2main_bm2 lam34n5 ) ( - ( - RFN1_main_bm ) ) ) 0 ) ) ( and ( >= lam35n0 0 ) ( >= lam35n1 0 ) ( >= lam35n2 0 ) ( >= lam35n3 0 ) ( >= lam35n4 0 ) ( >= lam35n5 0 ) ( > ( + ( * 1 lam35n2 ) ( * 1 lam35n3 ) ( * Nl2CT1 lam35n4 ) ( * Nl2CT2 lam35n5 ) ( - 1 ( + ( - ( + RFN1_CT ( * RFN1_main_bm 0 ) ) RFN1_CT ) 1 ) ) ) 0 ) ( = ( + ( * 1 lam35n0 ) ( * 1 lam35n1 ) ( * 1 lam35n2 ) ( * Nl2main_a1 lam35n4 ) ( * Nl2main_a2 lam35n5 ) ( - ( - ( + 0 RFN1_main_a ) RFN1_main_a ) ) ) 0 ) ( = ( + ( * ( - 1 ) lam35n1 ) ( * ( - 1 ) lam35n2 ) ( * Nl2main_b1 lam35n4 ) ( * Nl2main_b2 lam35n5 ) ( - ( - ( + ( + 0 RFN1_main_b ) ( * RFN1_main_bm 1 ) ) RFN1_main_b ) ) ) 0 ) ( = ( + ( * ( - 1 ) lam35n1 ) ( * ( - 1 ) lam35n3 ) ( * Nl2main_am1 lam35n4 ) ( * Nl2main_am2 lam35n5 ) ( - ( - ( + 0 RFN1_main_am ) RFN1_main_am ) ) ) 0 ) ( = ( + ( * 1 lam35n1 ) ( * 1 lam35n3 ) ( * Nl2main_bm1 lam35n4 ) ( * Nl2main_bm2 lam35n5 ) ( - ( - ( + 0 ( * RFN1_main_bm 1 ) ) RFN1_main_bm ) ) ) 0 ) ) ) ( and ( and ( >= lam38n0 0 ) ( >= lam38n1 0 ) ( >= lam38n2 0 ) ( >= lam38n3 0 ) ( >= lam38n4 0 ) ( > ( + ( * 1 lam38n1 ) ( * 1 lam38n2 ) ( * Nl2CT1 lam38n3 ) ( * Nl2CT2 lam38n4 ) ( - 1 ( - RFN1_CT ) ) ) 0 ) ( = ( + ( * 1 lam38n0 ) ( * ( - 1 ) lam38n1 ) ( * Nl2main_a1 lam38n3 ) ( * Nl2main_a2 lam38n4 ) ( - ( - RFN1_main_a ) ) ) 0 ) ( = ( + ( * ( - 1 ) lam38n0 ) ( * Nl2main_b1 lam38n3 ) ( * Nl2main_b2 lam38n4 ) ( - ( - RFN1_main_b ) ) ) 0 ) ( = ( + ( * ( - 1 ) lam38n0 ) ( * ( - 1 ) lam38n2 ) ( * Nl2main_am1 lam38n3 ) ( * Nl2main_am2 lam38n4 ) ( - ( - RFN1_main_am ) ) ) 0 ) ( = ( + ( * 1 lam38n0 ) ( * 1 lam38n2 ) ( * Nl2main_bm1 lam38n3 ) ( * Nl2main_bm2 lam38n4 ) ( - ( - RFN1_main_bm ) ) ) 0 ) ) ( and ( >= lam39n0 0 ) ( >= lam39n1 0 ) ( >= lam39n2 0 ) ( >= lam39n3 0 ) ( >= lam39n4 0 ) ( > ( + ( * 1 lam39n1 ) ( * 1 lam39n2 ) ( * Nl2CT1 lam39n3 ) ( * Nl2CT2 lam39n4 ) ( - 1 ( + ( - ( + RFN1_CT ( * RFN1_main_bm 0 ) ) RFN1_CT ) 1 ) ) ) 0 ) ( = ( + ( * 1 lam39n0 ) ( * ( - 1 ) lam39n1 ) ( * Nl2main_a1 lam39n3 ) ( * Nl2main_a2 lam39n4 ) ( - ( - ( + 0 RFN1_main_a ) RFN1_main_a ) ) ) 0 ) ( = ( + ( * ( - 1 ) lam39n0 ) ( * Nl2main_b1 lam39n3 ) ( * Nl2main_b2 lam39n4 ) ( - ( - ( + ( + 0 RFN1_main_b ) ( * RFN1_main_bm 1 ) ) RFN1_main_b ) ) ) 0 ) ( = ( + ( * ( - 1 ) lam39n0 ) ( * ( - 1 ) lam39n2 ) ( * Nl2main_am1 lam39n3 ) ( * Nl2main_am2 lam39n4 ) ( - ( - ( + 0 RFN1_main_am ) RFN1_main_am ) ) ) 0 ) ( = ( + ( * 1 lam39n0 ) ( * 1 lam39n2 ) ( * Nl2main_bm1 lam39n3 ) ( * Nl2main_bm2 lam39n4 ) ( - ( - ( + 0 ( * RFN1_main_bm 1 ) ) RFN1_main_bm ) ) ) 0 ) ) ) ) ) ( or ( and ( >= lam21n0 0 ) ( >= lam21n1 0 ) ( >= lam21n2 0 ) ( >= lam21n3 0 ) ( >= lam21n4 0 ) ( >= lam21n5 0 ) ( > ( + ( * 1 lam21n2 ) ( * 1 lam21n3 ) ( * Nl2CT1 lam21n4 ) ( * Nl2CT2 lam21n5 ) ( - 1 ) ) 0 ) ( = ( + ( * 1 lam21n0 ) ( * 1 lam21n1 ) ( * 1 lam21n2 ) ( * Nl2main_a1 lam21n4 ) ( * Nl2main_a2 lam21n5 ) ) 0 ) ( = ( + ( * ( - 1 ) lam21n1 ) ( * ( - 1 ) lam21n2 ) ( * Nl2main_b1 lam21n4 ) ( * Nl2main_b2 lam21n5 ) ) 0 ) ( = ( + ( * ( - 1 ) lam21n1 ) ( * 1 lam21n3 ) ( * Nl2main_am1 lam21n4 ) ( * Nl2main_am2 lam21n5 ) ) 0 ) ( = ( + ( * 1 lam21n1 ) ( * ( - 1 ) lam21n3 ) ( * Nl2main_bm1 lam21n4 ) ( * Nl2main_bm2 lam21n5 ) ) 0 ) ) ( and ( >= lam25n0 0 ) ( >= lam25n1 0 ) ( >= lam25n2 0 ) ( >= lam25n3 0 ) ( >= lam25n4 0 ) ( > ( + ( * 1 lam25n1 ) ( * 1 lam25n2 ) ( * Nl2CT1 lam25n3 ) ( * Nl2CT2 lam25n4 ) ( - 1 ) ) 0 ) ( = ( + ( * 1 lam25n0 ) ( * ( - 1 ) lam25n1 ) ( * Nl2main_a1 lam25n3 ) ( * Nl2main_a2 lam25n4 ) ) 0 ) ( = ( + ( * ( - 1 ) lam25n0 ) ( * Nl2main_b1 lam25n3 ) ( * Nl2main_b2 lam25n4 ) ) 0 ) ( = ( + ( * ( - 1 ) lam25n0 ) ( * 1 lam25n2 ) ( * Nl2main_am1 lam25n3 ) ( * Nl2main_am2 lam25n4 ) ) 0 ) ( = ( + ( * 1 lam25n0 ) ( * ( - 1 ) lam25n2 ) ( * Nl2main_bm1 lam25n3 ) ( * Nl2main_bm2 lam25n4 ) ) 0 ) ) ( and ( >= lam29n0 0 ) ( >= lam29n1 0 ) ( >= lam29n2 0 ) ( >= lam29n3 0 ) ( >= lam29n4 0 ) ( >= lam29n5 0 ) ( >= lam29n6 0 ) ( > ( + ( * 1 lam29n3 ) ( * 1 lam29n4 ) ( * Nl2CT1 lam29n5 ) ( * Nl2CT2 lam29n6 ) ( - 1 ) ) 0 ) ( = ( + ( * 1 lam29n0 ) ( * 1 lam29n1 ) ( * ( - 1 ) lam29n2 ) ( * 1 lam29n3 ) ( * Nl2main_a1 lam29n5 ) ( * Nl2main_a2 lam29n6 ) ) 0 ) ( = ( + ( * ( - 1 ) lam29n1 ) ( * 1 lam29n2 ) ( * 1 lam29n3 ) ( * Nl2main_b1 lam29n5 ) ( * Nl2main_b2 lam29n6 ) ) 0 ) ( = ( + ( * ( - 1 ) lam29n1 ) ( * ( - 1 ) lam29n3 ) ( * ( - 1 ) lam29n4 ) ( * Nl2main_am1 lam29n5 ) ( * Nl2main_am2 lam29n6 ) ) 0 ) ( = ( + ( * 1 lam29n1 ) ( * 1 lam29n3 ) ( * 1 lam29n4 ) ( * Nl2main_bm1 lam29n5 ) ( * Nl2main_bm2 lam29n6 ) ) 0 ) ) ( and ( >= lam33n0 0 ) ( >= lam33n1 0 ) ( >= lam33n2 0 ) ( >= lam33n3 0 ) ( >= lam33n4 0 ) ( >= lam33n5 0 ) ( > ( + ( * 1 lam33n2 ) ( * 1 lam33n3 ) ( * Nl2CT1 lam33n4 ) ( * Nl2CT2 lam33n5 ) ( - 1 ) ) 0 ) ( = ( + ( * 1 lam33n0 ) ( * 1 lam33n1 ) ( * 1 lam33n2 ) ( * Nl2main_a1 lam33n4 ) ( * Nl2main_a2 lam33n5 ) ) 0 ) ( = ( + ( * ( - 1 ) lam33n1 ) ( * ( - 1 ) lam33n2 ) ( * Nl2main_b1 lam33n4 ) ( * Nl2main_b2 lam33n5 ) ) 0 ) ( = ( + ( * ( - 1 ) lam33n1 ) ( * ( - 1 ) lam33n3 ) ( * Nl2main_am1 lam33n4 ) ( * Nl2main_am2 lam33n5 ) ) 0 ) ( = ( + ( * 1 lam33n1 ) ( * 1 lam33n3 ) ( * Nl2main_bm1 lam33n4 ) ( * Nl2main_bm2 lam33n5 ) ) 0 ) ) ( and ( >= lam37n0 0 ) ( >= lam37n1 0 ) ( >= lam37n2 0 ) ( >= lam37n3 0 ) ( >= lam37n4 0 ) ( > ( + ( * 1 lam37n1 ) ( * 1 lam37n2 ) ( * Nl2CT1 lam37n3 ) ( * Nl2CT2 lam37n4 ) ( - 1 ) ) 0 ) ( = ( + ( * 1 lam37n0 ) ( * ( - 1 ) lam37n1 ) ( * Nl2main_a1 lam37n3 ) ( * Nl2main_a2 lam37n4 ) ) 0 ) ( = ( + ( * ( - 1 ) lam37n0 ) ( * Nl2main_b1 lam37n3 ) ( * Nl2main_b2 lam37n4 ) ) 0 ) ( = ( + ( * ( - 1 ) lam37n0 ) ( * ( - 1 ) lam37n2 ) ( * Nl2main_am1 lam37n3 ) ( * Nl2main_am2 lam37n4 ) ) 0 ) ( = ( + ( * 1 lam37n0 ) ( * 1 lam37n2 ) ( * Nl2main_bm1 lam37n3 ) ( * Nl2main_bm2 lam37n4 ) ) 0 ) ) ) ))
(check-sat)
(exit)
